
Gurobi 10.0.1 (linux64) logging started Sun Nov 26 15:47:54 2023

Set parameter LogFile to value "ArtificialInstance/ExperimentV2/S3T5K1/AdRo/gurobiDoRo79.txt"
Gurobi Optimizer version 10.0.1 build v10.0.1rc0 (linux64)

CPU model: AMD EPYC 7H12 64-Core Processor, instruction set [SSE2|AVX|AVX2]
Thread count: 128 physical cores, 128 logical processors, using up to 32 threads

Academic license 656792 - for non-commercial use only - registered to b.___@student.vu.nl
Optimize a model with 4527 rows, 4165 columns and 16421 nonzeros
Model fingerprint: 0x2d105730
Variable types: 1 continuous, 4164 integer (4164 binary)
Coefficient statistics:
  Matrix range     [1e+00, 4e+01]
  Objective range  [1e+00, 2e+01]
  Bounds range     [1e+00, 1e+00]
  RHS range        [1e+00, 1e+00]
Presolve removed 1695 rows and 1371 columns
Presolve time: 0.05s
Presolved: 2832 rows, 2794 columns, 10877 nonzeros
Variable types: 1 continuous, 2793 integer (2793 binary)
Found heuristic solution: objective 102.7226837

Root relaxation: objective 9.079869e+01, 1080 iterations, 0.03 seconds (0.02 work units)

    Nodes    |    Current Node    |     Objective Bounds      |     Work
 Expl Unexpl |  Obj  Depth IntInf | Incumbent    BestBd   Gap | It/Node Time

H    0     0                      90.7986897   37.52512  58.7%     -    0s
     0     0          -    0        90.79869   90.79869  0.00%     -    0s

Explored 1 nodes (1550 simplex iterations) in 0.11 seconds (0.08 work units)
Thread count was 32 (of 128 available processors)

Solution count 2: 90.7987 102.723 

Optimal solution found (tolerance 1.00e-04)
Best objective 9.079868974488e+01, best bound 9.079868974488e+01, gap 0.0000%
